<number of tasks>
32

<cycle time>
1768

<task times>
1 458
2 276
3 520
4 1400
5 352
6 196
7 214
8 456
9 646
10 512
11 408
12 262
13 544
14 202
15 458
16 694
17 616
18 678
19 328
20 324
21 100
22 352
23 544
24 500
25 382
26 858
27 388
28 352
29 428
30 238
31 258
32 196

<precedence relations>
1,5
2,6
3,9
4,15
5,6
6,7
6,8
6,9
7,21
8,21
9,10
9,11
10,16
11,12
12,13
13,14
13,15
14,16
14,17
15,17
16,18
17,19
18,21
19,20
20,21
21,22
21,23
21,24
22,25
23,32
24,32
25,26
26,27
27,28
28,29
29,30
30,31
31,32

<setup times forward>
1,2:89
1,4:89
1,5:123
2,1:89
2,3:89
2,5:34
2,6:34
3,2:89
3,4:89
3,5:123
3,6:123
3,7:93
3,8:123
3,9:123
4,1:89
4,3:89
4,5:34
4,6:34
4,7:4
4,8:34
4,9:34
4,10:31
4,11:31
4,12:31
4,13:31
4,14:21
4,15:50
4,16:21
4,18:21
5,2:34
5,3:123
5,4:34
6,3:123
6,4:34
6,7:30
7,3:93
7,4:4
7,8:30
7,9:30
7,10:35
7,11:35
7,12:35
7,13:35
7,14:25
7,15:46
7,16:25
7,17:46
7,18:25
7,19:46
7,20:46
8,3:123
8,4:34
8,7:30
8,10:65
8,11:65
8,12:65
8,13:65
8,14:55
8,15:16
8,16:55
8,17:16
8,18:55
8,19:16
8,20:16
8,21:30
9,4:34
9,7:30
9,10:65
9,11:65
10,4:31
10,7:35
10,8:65
10,14:10
10,15:81
10,16:10
10,17:81
10,19:81
10,20:81
11,4:31
11,7:35
11,8:65
12,4:31
12,7:35
12,8:65
13,4:31
13,7:35
13,8:65
13,14:10
13,15:81
14,4:21
14,7:25
14,8:55
14,10:10
14,15:71
14,17:71
15,7:46
15,8:16
15,10:81
15,14:71
15,16:71
15,18:71
16,4:21
16,7:25
16,8:55
16,15:71
16,17:71
16,19:71
16,20:71
17,7:46
17,8:16
17,10:81
17,16:71
17,18:71
18,4:21
18,7:25
18,8:55
18,15:71
18,17:71
18,19:71
18,20:71
18,21:25
19,7:46
19,8:16
19,10:81
19,16:71
19,18:71
20,7:46
20,8:16
20,10:81
20,16:71
20,18:71
20,21:46
22,25:74
23,25:74
23,26:74
23,27:74
23,28:51
23,29:51
23,30:51
23,31:51
23,32:51
24,25:74
24,26:74
24,27:74
24,28:51
24,29:51
24,30:51
24,31:51
24,32:51
25,23:74
25,24:74
26,23:74
26,24:74
27,23:74
27,24:74
27,28:125
28,23:51
28,24:51
29,23:51
29,24:51
30,23:51
30,24:51
31,23:51
31,24:51

<setup times backward>
1,1:42
1,2:131
1,3:42
1,4:131
2,2:42
2,4:42
2,5:76
3,1:42
3,2:131
3,3:42
3,4:131
3,5:165
3,6:165
3,7:135
3,8:165
4,2:42
4,4:42
4,5:76
4,6:76
4,7:46
4,8:76
4,9:76
4,10:11
4,11:11
4,12:11
4,13:11
4,14:21
4,16:21
4,18:21
5,2:8
5,4:8
5,5:42
6,2:8
6,4:8
6,5:42
6,6:42
7,2:38
7,4:38
7,5:72
7,6:72
7,7:42
7,8:72
7,9:72
7,10:7
7,11:7
7,12:7
7,13:7
7,14:17
7,15:88
7,16:17
7,17:88
7,18:17
7,19:88
7,20:88
8,2:8
8,4:8
8,5:42
8,6:42
8,7:12
8,8:42
8,9:42
8,15:58
8,17:58
8,19:58
8,20:58
9,2:8
9,4:8
9,5:42
9,6:42
9,7:12
9,8:42
9,9:42
10,2:73
10,4:73
10,5:107
10,6:107
10,7:77
10,8:107
10,9:107
10,10:42
10,11:42
10,12:42
10,13:42
10,14:52
10,15:123
10,17:123
10,19:123
10,20:123
11,2:73
11,4:73
11,5:107
11,6:107
11,7:77
11,8:107
11,9:107
11,10:42
11,11:42
12,2:73
12,4:73
12,5:107
12,6:107
12,7:77
12,8:107
12,9:107
12,10:42
12,11:42
12,12:42
13,2:73
13,4:73
13,5:107
13,6:107
13,7:77
13,8:107
13,9:107
13,10:42
13,11:42
13,12:42
13,13:42
14,2:63
14,4:63
14,5:97
14,6:97
14,7:67
14,8:97
14,9:97
14,10:32
14,11:32
14,12:32
14,13:32
14,14:42
14,15:113
15,5:26
15,6:26
15,8:26
15,9:26
15,15:42
16,2:63
16,4:63
16,5:97
16,6:97
16,7:67
16,8:97
16,9:97
16,10:32
16,11:32
16,12:32
16,13:32
16,14:42
16,15:113
16,16:42
16,17:113
16,19:113
16,20:113
17,5:26
17,6:26
17,8:26
17,9:26
17,15:42
17,17:42
18,2:63
18,4:63
18,5:97
18,6:97
18,7:67
18,8:97
18,9:97
18,10:32
18,11:32
18,12:32
18,13:32
18,14:42
18,15:113
18,16:42
18,17:113
18,18:42
18,19:113
18,20:113
19,5:26
19,6:26
19,8:26
19,9:26
19,15:42
19,17:42
19,19:42
20,5:26
20,6:26
20,8:26
20,9:26
20,15:42
20,17:42
20,19:42
20,20:42
21,2:38
21,4:38
21,5:72
21,6:72
21,7:42
21,8:72
21,9:72
21,10:7
21,11:7
21,12:7
21,13:7
21,14:17
21,15:88
21,16:17
21,17:88
21,18:17
21,19:88
21,20:88
21,21:42
22,2:38
22,4:38
22,5:72
22,6:72
22,7:42
22,8:72
22,9:72
22,10:7
22,11:7
22,12:7
22,13:7
22,14:17
22,15:88
22,16:17
22,17:88
22,18:17
22,19:88
22,20:88
22,21:42
22,22:42
22,23:42
22,24:42
23,2:38
23,4:38
23,5:72
23,6:72
23,7:42
23,8:72
23,9:72
23,10:7
23,11:7
23,12:7
23,13:7
23,14:17
23,15:88
23,16:17
23,17:88
23,18:17
23,19:88
23,20:88
23,21:42
23,22:42
23,23:42
23,24:42
23,25:116
23,26:116
23,27:116
24,2:38
24,4:38
24,5:72
24,6:72
24,7:42
24,8:72
24,9:72
24,10:7
24,11:7
24,12:7
24,13:7
24,14:17
24,15:88
24,16:17
24,17:88
24,18:17
24,19:88
24,20:88
24,21:42
24,22:42
24,23:42
24,24:42
24,25:116
24,26:116
24,27:116
25,15:14
25,17:14
25,19:14
25,20:14
25,25:42
26,15:14
26,17:14
26,19:14
26,20:14
26,25:42
26,26:42
27,15:14
27,17:14
27,19:14
27,20:14
27,25:42
27,26:42
27,27:42
28,2:89
28,4:89
28,5:123
28,6:123
28,7:93
28,8:123
28,9:123
28,10:58
28,11:58
28,12:58
28,13:58
28,14:68
28,15:139
28,16:68
28,17:139
28,18:68
28,19:139
28,20:139
28,21:93
28,22:93
28,23:93
28,24:93
28,25:167
28,26:167
28,27:167
28,28:42
29,2:89
29,4:89
29,5:123
29,6:123
29,7:93
29,8:123
29,9:123
29,10:58
29,11:58
29,12:58
29,13:58
29,14:68
29,15:139
29,16:68
29,17:139
29,18:68
29,19:139
29,20:139
29,21:93
29,22:93
29,23:93
29,24:93
29,25:167
29,26:167
29,27:167
29,28:42
29,29:42
30,2:89
30,4:89
30,5:123
30,6:123
30,7:93
30,8:123
30,9:123
30,10:58
30,11:58
30,12:58
30,13:58
30,14:68
30,15:139
30,16:68
30,17:139
30,18:68
30,19:139
30,20:139
30,21:93
30,22:93
30,23:93
30,24:93
30,25:167
30,26:167
30,27:167
30,28:42
30,29:42
30,30:42
31,2:89
31,4:89
31,5:123
31,6:123
31,7:93
31,8:123
31,9:123
31,10:58
31,11:58
31,12:58
31,13:58
31,14:68
31,15:139
31,16:68
31,17:139
31,18:68
31,19:139
31,20:139
31,21:93
31,22:93
31,23:93
31,24:93
31,25:167
31,26:167
31,27:167
31,28:42
31,29:42
31,30:42
31,31:42
32,2:89
32,4:89
32,5:123
32,6:123
32,7:93
32,8:123
32,9:123
32,10:58
32,11:58
32,12:58
32,13:58
32,14:68
32,15:139
32,16:68
32,17:139
32,18:68
32,19:139
32,20:139
32,21:93
32,22:93
32,23:93
32,24:93
32,25:167
32,26:167
32,27:167
32,28:42
32,29:42
32,30:42
32,31:42
32,32:42

<end>

<optimal SALBP-1 value>
9


<rand seed>
467321153

